28812.0
1 0 1 1 1 1 1 0 1 0 1 1 1 1 1 0 1 1 1 1 1 0 0 0 1 1 0 1 1 0 
18 19 2 27 2 12 2 27 18 28 4 28 13 13 28 18 3 20 27 0 18 16 5 24 10 18 27 19 4 2 19 19 4 16 27 6 20 8 24 16 18 8 6 4 8 19 13 2 19 14 24 16 24 16 8 6 11 8 18 25 4 0 25 8 13 11 5 14 28 25 18 12 19 8 5 13 20 5 8 16 10 0 8 25 4 13 6 5 27 25 28 6 25 25 2 3 11 6 0 28 28 16 25 18 4 0 4 24 27 3 19 4 27 12 12 8 28 25 17 8 14 11 17 19 4 16 2 11 19 17 28 24 25 20 5 8 3 3 28 10 12 27 11 11 25 5 24 16 27 25 24 17 10 0 8 11 2 16 3 13 13 27 10 24 5 27 5 4 3 2 5 20 19 14 4 2 0 10 4 10 5 16 2 6 12 8 28 10 0 24 2 2 6 4 25 12 25 2 10 19 